param n := 120;
param c := 1000;
param : V : p w :=
   0	 376	 366
   1	 278	 268
   2	 376	 366
   3	 440	 430
   4	 273	 263
   5	 317	 307
   6	 424	 414
   7	 297	 287
   8	 309	 299
   9	 505	 495
  10	 261	 251
  11	 264	 254
  12	 484	 474
  13	 262	 252
  14	 284	 274
  15	 380	 370
  16	 279	 269
  17	 371	 361
  18	 483	 473
  19	 262	 252
  20	 285	 275
  21	 482	 472
  22	 269	 259
  23	 279	 269
  24	 454	 444
  25	 268	 258
  26	 308	 298
  27	 449	 439
  28	 283	 273
  29	 298	 288
  30	 455	 445
  31	 282	 272
  32	 293	 283
  33	 429	 419
  34	 271	 261
  35	 330	 320
  36	 373	 363
  37	 281	 271
  38	 376	 366
  39	 365	 355
  40	 283	 273
  41	 382	 372
  42	 476	 466
  43	 272	 262
  44	 282	 272
  45	 367	 357
  46	 302	 292
  47	 361	 351
  48	 405	 395
  49	 265	 255
  50	 360	 350
  51	 360	 350
  52	 313	 303
  53	 357	 347
  54	 460	 450
  55	 262	 252
  56	 308	 298
  57	 420	 410
  58	 285	 275
  59	 325	 315
  60	 417	 407
  61	 270	 260
  62	 343	 333
  63	 376	 366
  64	 281	 271
  65	 373	 363
  66	 360	 350
  67	 304	 294
  68	 366	 356
  69	 490	 480
  70	 263	 253
  71	 277	 267
  72	 456	 446
  73	 269	 259
  74	 305	 295
  75	 386	 376
  76	 277	 267
  77	 367	 357
  78	 376	 366
  79	 292	 282
  80	 362	 352
  81	 488	 478
  82	 266	 256
  83	 276	 266
  84	 430	 420
  85	 261	 251
  86	 339	 329
  87	 444	 434
  88	 262	 252
  89	 324	 314
  90	 480	 470
  91	 264	 254
  92	 286	 276
  93	 507	 497
  94	 260	 250
  95	 263	 253
  96	 507	 497
  97	 260	 250
  98	 263	 253
  99	 455	 445
 100	 264	 254
 101	 311	 301
 102	 422	 412
 103	 273	 263
 104	 335	 325
 105	 410	 400
 106	 308	 298
 107	 312	 302
 108	 372	 362
 109	 292	 282
 110	 366	 356
 111	 415	 405
 112	 269	 259
 113	 346	 336
 114	 407	 397
 115	 300	 290
 116	 323	 313
 117	 495	 485
 118	 263	 253
 119	 272	 262
;

set E :=
   0	   6
   0	   7
   0	   8
   0	   9
   0	  10
   0	  11
   0	  12
   0	  16
   0	  18
   0	  19
   0	  20
   0	  28
   0	  33
   0	  37
   0	  40
   0	  42
   0	  44
   0	  46
   0	  51
   0	  52
   0	  54
   0	  56
   0	  58
   0	  60
   0	  66
   0	  69
   0	  72
   0	  74
   0	  76
   0	  79
   0	  80
   0	  81
   0	  87
   0	  88
   0	  90
   0	  93
   0	  94
   0	 101
   0	 104
   0	 106
   0	 110
   0	 111
   0	 113
   0	 119
   1	   3
   1	   7
   1	   8
   1	  11
   1	  14
   1	  16
   1	  17
   1	  18
   1	  22
   1	  23
   1	  25
   1	  35
   1	  38
   1	  42
   1	  43
   1	  46
   1	  48
   1	  50
   1	  51
   1	  54
   1	  56
   1	  62
   1	  63
   1	  65
   1	  69
   1	  70
   1	  71
   1	  72
   1	  73
   1	  75
   1	  77
   1	  78
   1	  81
   1	  83
   1	  85
   1	  86
   1	  87
   1	  95
   1	  99
   1	 100
   1	 101
   1	 102
   1	 104
   1	 108
   1	 110
   1	 111
   1	 116
   1	 118
   2	   6
   2	   7
   2	   9
   2	  14
   2	  17
   2	  19
   2	  23
   2	  26
   2	  28
   2	  32
   2	  33
   2	  34
   2	  35
   2	  36
   2	  39
   2	  40
   2	  42
   2	  46
   2	  47
   2	  52
   2	  56
   2	  58
   2	  59
   2	  60
   2	  63
   2	  64
   2	  65
   2	  67
   2	  68
   2	  69
   2	  70
   2	  71
   2	  74
   2	  75
   2	  76
   2	  80
   2	  81
   2	  82
   2	  87
   2	  90
   2	  92
   2	  93
   2	  94
   2	  95
   2	 100
   2	 105
   2	 106
   2	 108
   2	 110
   2	 111
   2	 116
   2	 117
   2	 119
   3	   5
   3	   8
   3	   9
   3	  11
   3	  14
   3	  17
   3	  22
   3	  26
   3	  28
   3	  31
   3	  32
   3	  33
   3	  34
   3	  37
   3	  38
   3	  43
   3	  45
   3	  47
   3	  50
   3	  51
   3	  52
   3	  56
   3	  59
   3	  65
   3	  66
   3	  69
   3	  79
   3	  80
   3	  81
   3	  82
   3	  83
   3	  86
   3	  87
   3	  91
   3	  93
   3	  99
   3	 102
   3	 103
   3	 105
   3	 106
   3	 110
   3	 112
   3	 114
   3	 116
   3	 117
   3	 119
   4	   5
   4	   6
   4	   8
   4	  10
   4	  14
   4	  15
   4	  17
   4	  18
   4	  20
   4	  21
   4	  23
   4	  24
   4	  27
   4	  32
   4	  35
   4	  36
   4	  39
   4	  40
   4	  42
   4	  46
   4	  59
   4	  60
   4	  62
   4	  65
   4	  66
   4	  67
   4	  69
   4	  70
   4	  71
   4	  72
   4	  73
   4	  74
   4	  76
   4	  78
   4	  80
   4	  85
   4	  86
   4	  87
   4	  91
   4	  96
   4	  98
   4	 106
   4	 109
   4	 111
   4	 112
   4	 114
   4	 115
   4	 118
   4	 119
   5	   6
   5	  12
   5	  14
   5	  20
   5	  21
   5	  22
   5	  26
   5	  27
   5	  32
   5	  34
   5	  37
   5	  40
   5	  43
   5	  46
   5	  51
   5	  55
   5	  56
   5	  58
   5	  59
   5	  61
   5	  63
   5	  64
   5	  65
   5	  73
   5	  74
   5	  79
   5	  84
   5	  86
   5	  89
   5	  90
   5	  91
   5	  92
   5	  97
   5	  98
   5	 103
   5	 107
   5	 109
   5	 111
   5	 112
   5	 113
   5	 116
   5	 118
   6	   8
   6	  12
   6	  18
   6	  19
   6	  24
   6	  26
   6	  29
   6	  30
   6	  31
   6	  32
   6	  36
   6	  37
   6	  38
   6	  39
   6	  43
   6	  44
   6	  46
   6	  50
   6	  52
   6	  58
   6	  60
   6	  61
   6	  62
   6	  64
   6	  65
   6	  69
   6	  70
   6	  71
   6	  75
   6	  78
   6	  80
   6	  82
   6	  84
   6	  94
   6	  96
   6	  98
   6	  99
   6	 100
   6	 101
   6	 102
   6	 103
   6	 111
   6	 115
   6	 116
   6	 118
   6	 119
   7	  14
   7	  17
   7	  19
   7	  20
   7	  22
   7	  23
   7	  26
   7	  29
   7	  38
   7	  39
   7	  42
   7	  45
   7	  47
   7	  49
   7	  52
   7	  55
   7	  57
   7	  59
   7	  71
   7	  73
   7	  74
   7	  75
   7	  81
   7	  85
   7	  86
   7	  87
   7	  89
   7	  90
   7	  92
   7	  93
   7	  98
   7	  99
   7	 100
   7	 105
   7	 107
   7	 110
   7	 119
   8	  11
   8	  17
   8	  24
   8	  25
   8	  31
   8	  41
   8	  45
   8	  46
   8	  47
   8	  48
   8	  52
   8	  54
   8	  65
   8	  70
   8	  72
   8	  73
   8	  74
   8	  77
   8	  82
   8	  84
   8	  86
   8	  89
   8	  95
   8	  97
   8	 101
   8	 103
   8	 106
   8	 109
   8	 112
   8	 117
   9	  10
   9	  11
   9	  13
   9	  14
   9	  19
   9	  20
   9	  22
   9	  27
   9	  30
   9	  33
   9	  34
   9	  36
   9	  37
   9	  38
   9	  40
   9	  43
   9	  44
   9	  50
   9	  53
   9	  56
   9	  57
   9	  61
   9	  62
   9	  63
   9	  64
   9	  69
   9	  71
   9	  72
   9	  76
   9	  77
   9	  78
   9	  81
   9	  83
   9	  86
   9	  87
   9	  89
   9	  92
   9	  93
   9	  95
   9	  96
   9	  97
   9	 101
   9	 102
   9	 105
   9	 106
   9	 108
   9	 113
   9	 115
   9	 116
   9	 117
  10	  13
  10	  18
  10	  19
  10	  20
  10	  22
  10	  25
  10	  30
  10	  34
  10	  35
  10	  38
  10	  39
  10	  42
  10	  44
  10	  46
  10	  48
  10	  49
  10	  50
  10	  52
  10	  53
  10	  54
  10	  57
  10	  62
  10	  65
  10	  67
  10	  69
  10	  72
  10	  76
  10	  79
  10	  80
  10	  82
  10	  83
  10	  84
  10	  85
  10	  86
  10	  87
  10	  90
  10	  91
  10	  92
  10	  96
  10	  98
  10	  99
  10	 101
  10	 103
  10	 104
  10	 105
  10	 106
  10	 108
  10	 109
  10	 115
  10	 116
  11	  12
  11	  14
  11	  18
  11	  19
  11	  20
  11	  23
  11	  24
  11	  26
  11	  29
  11	  41
  11	  42
  11	  44
  11	  51
  11	  53
  11	  56
  11	  60
  11	  61
  11	  62
  11	  63
  11	  68
  11	  71
  11	  76
  11	  79
  11	  80
  11	  81
  11	  82
  11	  83
  11	  86
  11	  88
  11	  90
  11	  95
  11	  96
  11	  97
  11	  98
  11	 100
  11	 101
  11	 102
  11	 105
  11	 106
  11	 107
  11	 109
  11	 110
  11	 116
  11	 119
  12	  23
  12	  27
  12	  29
  12	  33
  12	  34
  12	  35
  12	  36
  12	  38
  12	  40
  12	  42
  12	  46
  12	  48
  12	  49
  12	  51
  12	  58
  12	  60
  12	  63
  12	  68
  12	  69
  12	  70
  12	  71
  12	  72
  12	  73
  12	  77
  12	  78
  12	  81
  12	  82
  12	  84
  12	  86
  12	  88
  12	  89
  12	  90
  12	  95
  12	  98
  12	  99
  12	 100
  12	 101
  12	 102
  12	 108
  12	 110
  12	 115
  12	 119
  13	  14
  13	  15
  13	  16
  13	  20
  13	  23
  13	  25
  13	  27
  13	  29
  13	  30
  13	  31
  13	  36
  13	  40
  13	  42
  13	  45
  13	  48
  13	  50
  13	  51
  13	  53
  13	  60
  13	  61
  13	  64
  13	  65
  13	  66
  13	  67
  13	  70
  13	  71
  13	  72
  13	  75
  13	  77
  13	  82
  13	  86
  13	  87
  13	  88
  13	  91
  13	  92
  13	  94
  13	  96
  13	 100
  13	 108
  13	 111
  13	 114
  13	 116
  13	 117
  14	  15
  14	  22
  14	  25
  14	  27
  14	  29
  14	  31
  14	  33
  14	  36
  14	  37
  14	  38
  14	  40
  14	  42
  14	  47
  14	  50
  14	  51
  14	  54
  14	  55
  14	  58
  14	  59
  14	  63
  14	  65
  14	  66
  14	  68
  14	  69
  14	  71
  14	  72
  14	  75
  14	  77
  14	  84
  14	  88
  14	  94
  14	  95
  14	  99
  14	 103
  14	 105
  14	 109
  14	 110
  14	 112
  14	 113
  14	 114
  14	 116
  14	 117
  14	 118
  15	  17
  15	  19
  15	  20
  15	  22
  15	  23
  15	  24
  15	  29
  15	  31
  15	  33
  15	  34
  15	  36
  15	  41
  15	  43
  15	  45
  15	  48
  15	  51
  15	  52
  15	  55
  15	  57
  15	  58
  15	  59
  15	  61
  15	  62
  15	  64
  15	  66
  15	  68
  15	  69
  15	  70
  15	  73
  15	  76
  15	  77
  15	  80
  15	  84
  15	  86
  15	  88
  15	  91
  15	  93
  15	  94
  15	 100
  15	 101
  15	 104
  15	 105
  15	 107
  15	 108
  15	 109
  15	 110
  15	 113
  15	 116
  15	 117
  16	  22
  16	  23
  16	  30
  16	  31
  16	  32
  16	  33
  16	  34
  16	  35
  16	  36
  16	  37
  16	  38
  16	  44
  16	  45
  16	  46
  16	  49
  16	  50
  16	  51
  16	  54
  16	  55
  16	  56
  16	  57
  16	  59
  16	  60
  16	  62
  16	  68
  16	  76
  16	  78
  16	  79
  16	  82
  16	  83
  16	  85
  16	  86
  16	  88
  16	  93
  16	  94
  16	  95
  16	  97
  16	  98
  16	 100
  16	 104
  16	 105
  16	 107
  16	 108
  16	 109
  16	 110
  16	 115
  17	  19
  17	  22
  17	  23
  17	  26
  17	  27
  17	  30
  17	  32
  17	  34
  17	  35
  17	  40
  17	  41
  17	  45
  17	  50
  17	  56
  17	  58
  17	  60
  17	  61
  17	  63
  17	  65
  17	  66
  17	  67
  17	  68
  17	  69
  17	  71
  17	  72
  17	  75
  17	  76
  17	  78
  17	  80
  17	  85
  17	  86
  17	  87
  17	  89
  17	  92
  17	  93
  17	  95
  17	  96
  17	  97
  17	  98
  17	  99
  17	 102
  17	 105
  17	 110
  17	 115
  17	 116
  17	 118
  18	  24
  18	  26
  18	  31
  18	  33
  18	  35
  18	  37
  18	  38
  18	  40
  18	  41
  18	  42
  18	  45
  18	  46
  18	  50
  18	  56
  18	  61
  18	  64
  18	  69
  18	  73
  18	  74
  18	  75
  18	  76
  18	  77
  18	  79
  18	  82
  18	  84
  18	  85
  18	  88
  18	  90
  18	  91
  18	  93
  18	  97
  18	 101
  18	 103
  18	 104
  18	 105
  18	 107
  18	 112
  19	  20
  19	  22
  19	  28
  19	  30
  19	  33
  19	  34
  19	  35
  19	  37
  19	  40
  19	  41
  19	  42
  19	  45
  19	  46
  19	  49
  19	  55
  19	  56
  19	  59
  19	  60
  19	  68
  19	  70
  19	  73
  19	  74
  19	  75
  19	  79
  19	  82
  19	  85
  19	  86
  19	  93
  19	  95
  19	  97
  19	  99
  19	 102
  19	 103
  19	 104
  19	 107
  19	 111
  20	  23
  20	  24
  20	  25
  20	  33
  20	  37
  20	  38
  20	  42
  20	  46
  20	  47
  20	  49
  20	  51
  20	  53
  20	  54
  20	  57
  20	  61
  20	  62
  20	  65
  20	  66
  20	  67
  20	  71
  20	  72
  20	  75
  20	  79
  20	  81
  20	  82
  20	  83
  20	  87
  20	  92
  20	  93
  20	  94
  20	  97
  20	  98
  20	 100
  20	 104
  20	 106
  20	 107
  20	 108
  20	 110
  20	 111
  21	  31
  21	  33
  21	  34
  21	  39
  21	  42
  21	  44
  21	  46
  21	  48
  21	  50
  21	  51
  21	  53
  21	  54
  21	  55
  21	  56
  21	  58
  21	  59
  21	  61
  21	  66
  21	  70
  21	  71
  21	  74
  21	  77
  21	  78
  21	  79
  21	  82
  21	  83
  21	  85
  21	  87
  21	  91
  21	  92
  21	  93
  21	  94
  21	  96
  21	  99
  21	 100
  21	 102
  21	 105
  21	 110
  21	 111
  21	 112
  21	 113
  22	  23
  22	  31
  22	  32
  22	  33
  22	  36
  22	  38
  22	  39
  22	  44
  22	  46
  22	  49
  22	  50
  22	  52
  22	  55
  22	  60
  22	  61
  22	  63
  22	  65
  22	  69
  22	  70
  22	  74
  22	  75
  22	  76
  22	  77
  22	  79
  22	  86
  22	  87
  22	  92
  22	  96
  22	  97
  22	 101
  22	 102
  22	 104
  22	 106
  22	 107
  22	 110
  22	 115
  22	 117
  22	 118
  22	 119
  23	  27
  23	  30
  23	  32
  23	  36
  23	  39
  23	  42
  23	  45
  23	  46
  23	  47
  23	  48
  23	  49
  23	  52
  23	  56
  23	  58
  23	  60
  23	  62
  23	  64
  23	  66
  23	  67
  23	  68
  23	  72
  23	  73
  23	  78
  23	  80
  23	  81
  23	  90
  23	  92
  23	  94
  23	  96
  23	 100
  23	 101
  23	 104
  23	 112
  23	 113
  23	 114
  23	 117
  23	 119
  24	  27
  24	  30
  24	  32
  24	  37
  24	  38
  24	  39
  24	  40
  24	  42
  24	  43
  24	  44
  24	  46
  24	  48
  24	  49
  24	  51
  24	  53
  24	  56
  24	  57
  24	  58
  24	  61
  24	  62
  24	  67
  24	  68
  24	  71
  24	  78
  24	  80
  24	  81
  24	  82
  24	  85
  24	  86
  24	  88
  24	  90
  24	  92
  24	  93
  24	  96
  24	  98
  24	  99
  24	 100
  24	 101
  24	 102
  24	 104
  24	 108
  24	 112
  24	 114
  24	 117
  24	 118
  25	  28
  25	  31
  25	  35
  25	  45
  25	  46
  25	  48
  25	  49
  25	  51
  25	  53
  25	  54
  25	  55
  25	  60
  25	  61
  25	  62
  25	  67
  25	  76
  25	  77
  25	  80
  25	  83
  25	  87
  25	  88
  25	  91
  25	  92
  25	  95
  25	  96
  25	  97
  25	 100
  25	 102
  25	 103
  25	 104
  25	 105
  25	 106
  25	 108
  25	 110
  25	 113
  25	 115
  25	 117
  26	  30
  26	  35
  26	  36
  26	  41
  26	  45
  26	  46
  26	  47
  26	  51
  26	  53
  26	  58
  26	  59
  26	  61
  26	  63
  26	  64
  26	  65
  26	  66
  26	  69
  26	  70
  26	  71
  26	  73
  26	  74
  26	  77
  26	  78
  26	  80
  26	  86
  26	  87
  26	  90
  26	  95
  26	  97
  26	  98
  26	  99
  26	 102
  26	 107
  26	 108
  26	 109
  26	 111
  26	 112
  26	 119
  27	  28
  27	  29
  27	  31
  27	  32
  27	  33
  27	  37
  27	  40
  27	  48
  27	  49
  27	  52
  27	  53
  27	  55
  27	  57
  27	  59
  27	  61
  27	  62
  27	  63
  27	  70
  27	  73
  27	  78
  27	  83
  27	  84
  27	  85
  27	  86
  27	  88
  27	  89
  27	  93
  27	  96
  27	  97
  27	  98
  27	 101
  27	 108
  27	 109
  27	 110
  27	 111
  27	 114
  27	 117
  28	  29
  28	  31
  28	  32
  28	  39
  28	  40
  28	  43
  28	  45
  28	  46
  28	  48
  28	  49
  28	  53
  28	  58
  28	  60
  28	  62
  28	  67
  28	  70
  28	  72
  28	  73
  28	  82
  28	  84
  28	  87
  28	  90
  28	  92
  28	  93
  28	  99
  28	 100
  28	 101
  28	 102
  28	 103
  28	 107
  28	 108
  28	 111
  28	 112
  28	 118
  29	  30
  29	  31
  29	  34
  29	  36
  29	  37
  29	  39
  29	  42
  29	  44
  29	  45
  29	  46
  29	  47
  29	  51
  29	  53
  29	  54
  29	  62
  29	  67
  29	  68
  29	  74
  29	  75
  29	  78
  29	  79
  29	  82
  29	  83
  29	  86
  29	  87
  29	  88
  29	  90
  29	 100
  29	 103
  29	 104
  29	 105
  29	 106
  29	 111
  29	 112
  29	 115
  30	  34
  30	  39
  30	  56
  30	  57
  30	  58
  30	  61
  30	  62
  30	  65
  30	  68
  30	  70
  30	  71
  30	  72
  30	  73
  30	  75
  30	  76
  30	  77
  30	  79
  30	  85
  30	  86
  30	  88
  30	  90
  30	  91
  30	  92
  30	  93
  30	  95
  30	  96
  30	 101
  30	 105
  30	 107
  30	 114
  30	 117
  31	  32
  31	  35
  31	  37
  31	  38
  31	  39
  31	  42
  31	  43
  31	  44
  31	  47
  31	  49
  31	  51
  31	  54
  31	  57
  31	  59
  31	  61
  31	  66
  31	  67
  31	  68
  31	  69
  31	  71
  31	  79
  31	  82
  31	  83
  31	  85
  31	  88
  31	  90
  31	  92
  31	  97
  31	  99
  31	 100
  31	 101
  31	 106
  31	 110
  31	 112
  31	 113
  31	 115
  31	 117
  31	 118
  32	  35
  32	  40
  32	  41
  32	  43
  32	  45
  32	  50
  32	  54
  32	  55
  32	  56
  32	  63
  32	  64
  32	  66
  32	  67
  32	  72
  32	  73
  32	  74
  32	  75
  32	  79
  32	  80
  32	  81
  32	  82
  32	  83
  32	  85
  32	  92
  32	  97
  32	  98
  32	 100
  32	 102
  32	 104
  32	 107
  32	 110
  33	  34
  33	  36
  33	  37
  33	  39
  33	  41
  33	  44
  33	  47
  33	  51
  33	  53
  33	  54
  33	  55
  33	  59
  33	  61
  33	  63
  33	  65
  33	  66
  33	  67
  33	  68
  33	  69
  33	  70
  33	  71
  33	  75
  33	  77
  33	  79
  33	  85
  33	  90
  33	  93
  33	  94
  33	  95
  33	  99
  33	 103
  33	 106
  33	 107
  33	 108
  33	 113
  33	 114
  33	 115
  33	 116
  34	  35
  34	  37
  34	  39
  34	  40
  34	  44
  34	  50
  34	  51
  34	  54
  34	  56
  34	  58
  34	  61
  34	  63
  34	  65
  34	  66
  34	  68
  34	  69
  34	  70
  34	  74
  34	  75
  34	  76
  34	  79
  34	  80
  34	  82
  34	  83
  34	  92
  34	  93
  34	  95
  34	  99
  34	 100
  34	 104
  34	 107
  34	 109
  34	 111
  34	 113
  34	 114
  34	 116
  34	 117
  34	 118
  35	  37
  35	  38
  35	  39
  35	  44
  35	  45
  35	  49
  35	  51
  35	  53
  35	  61
  35	  65
  35	  68
  35	  69
  35	  70
  35	  71
  35	  78
  35	  80
  35	  83
  35	  86
  35	  90
  35	  91
  35	  93
  35	  98
  35	 101
  35	 102
  35	 104
  35	 106
  35	 108
  35	 110
  35	 112
  35	 113
  35	 116
  35	 118
  36	  37
  36	  38
  36	  40
  36	  43
  36	  46
  36	  49
  36	  50
  36	  51
  36	  57
  36	  58
  36	  59
  36	  72
  36	  73
  36	  78
  36	  79
  36	  80
  36	  81
  36	  83
  36	  84
  36	  86
  36	  91
  36	 101
  36	 103
  36	 104
  36	 105
  36	 110
  36	 111
  36	 112
  36	 113
  36	 116
  36	 119
  37	  40
  37	  43
  37	  44
  37	  45
  37	  47
  37	  48
  37	  51
  37	  62
  37	  64
  37	  66
  37	  67
  37	  68
  37	  69
  37	  71
  37	  72
  37	  75
  37	  76
  37	  79
  37	  84
  37	  85
  37	  86
  37	  89
  37	  90
  37	  91
  37	  94
  37	  95
  37	  97
  37	  98
  37	  99
  37	 103
  37	 107
  37	 109
  37	 110
  37	 111
  37	 112
  37	 116
  37	 119
  38	  40
  38	  42
  38	  43
  38	  44
  38	  50
  38	  52
  38	  53
  38	  57
  38	  60
  38	  61
  38	  62
  38	  64
  38	  65
  38	  68
  38	  72
  38	  73
  38	  76
  38	  79
  38	  81
  38	  84
  38	  85
  38	  87
  38	  91
  38	  94
  38	  96
  38	  97
  38	  98
  38	  99
  38	 101
  38	 103
  38	 104
  38	 105
  38	 106
  38	 108
  38	 110
  38	 111
  38	 113
  38	 114
  38	 116
  38	 118
  39	  45
  39	  47
  39	  48
  39	  49
  39	  50
  39	  51
  39	  58
  39	  61
  39	  63
  39	  65
  39	  68
  39	  69
  39	  72
  39	  76
  39	  77
  39	  79
  39	  80
  39	  81
  39	  83
  39	  92
  39	  95
  39	 106
  39	 107
  39	 110
  39	 111
  40	  41
  40	  45
  40	  46
  40	  47
  40	  49
  40	  50
  40	  51
  40	  52
  40	  54
  40	  55
  40	  56
  40	  59
  40	  60
  40	  62
  40	  64
  40	  67
  40	  69
  40	  73
  40	  76
  40	  79
  40	  83
  40	  84
  40	  86
  40	  87
  40	  91
  40	  93
  40	  98
  40	 101
  40	 103
  40	 107
  40	 108
  40	 109
  40	 113
  40	 114
  40	 115
  40	 117
  41	  43
  41	  45
  41	  49
  41	  50
  41	  56
  41	  59
  41	  61
  41	  62
  41	  64
  41	  67
  41	  68
  41	  71
  41	  73
  41	  75
  41	  80
  41	  81
  41	  84
  41	  86
  41	  87
  41	  88
  41	  89
  41	  92
  41	  95
  41	  98
  41	 102
  41	 104
  41	 110
  41	 111
  41	 113
  41	 118
  42	  44
  42	  48
  42	  49
  42	  50
  42	  52
  42	  54
  42	  56
  42	  60
  42	  61
  42	  64
  42	  66
  42	  68
  42	  69
  42	  73
  42	  75
  42	  82
  42	  83
  42	  86
  42	  89
  42	  90
  42	  94
  42	  98
  42	  99
  42	 100
  42	 101
  42	 103
  42	 108
  42	 110
  42	 113
  42	 116
  42	 118
  43	  45
  43	  46
  43	  49
  43	  50
  43	  51
  43	  52
  43	  53
  43	  57
  43	  58
  43	  60
  43	  67
  43	  70
  43	  73
  43	  75
  43	  76
  43	  77
  43	  84
  43	  85
  43	  93
  43	  96
  43	  98
  43	 102
  43	 108
  43	 109
  43	 111
  43	 112
  43	 116
  43	 119
  44	  45
  44	  49
  44	  52
  44	  57
  44	  60
  44	  61
  44	  70
  44	  73
  44	  75
  44	  80
  44	  81
  44	  82
  44	  83
  44	  84
  44	  85
  44	  87
  44	  92
  44	  97
  44	 106
  44	 111
  44	 116
  45	  48
  45	  49
  45	  50
  45	  52
  45	  55
  45	  56
  45	  62
  45	  63
  45	  65
  45	  66
  45	  69
  45	  70
  45	  73
  45	  75
  45	  76
  45	  79
  45	  82
  45	  88
  45	  90
  45	  91
  45	  97
  45	 102
  45	 103
  45	 104
  45	 105
  45	 108
  45	 110
  45	 115
  45	 116
  46	  52
  46	  60
  46	  64
  46	  65
  46	  70
  46	  71
  46	  74
  46	  76
  46	  78
  46	  79
  46	  80
  46	  86
  46	  88
  46	  91
  46	  92
  46	  93
  46	  99
  46	 102
  46	 103
  46	 104
  46	 106
  46	 108
  46	 109
  46	 111
  46	 112
  46	 115
  46	 118
  46	 119
  47	  50
  47	  53
  47	  54
  47	  55
  47	  57
  47	  59
  47	  60
  47	  63
  47	  64
  47	  65
  47	  66
  47	  70
  47	  72
  47	  74
  47	  75
  47	  77
  47	  80
  47	  81
  47	  83
  47	  84
  47	  85
  47	  88
  47	  89
  47	  90
  47	  91
  47	  92
  47	  95
  47	  98
  47	 100
  47	 104
  47	 108
  47	 109
  47	 115
  47	 116
  47	 117
  47	 119
  48	  52
  48	  54
  48	  61
  48	  62
  48	  67
  48	  68
  48	  70
  48	  71
  48	  75
  48	  77
  48	  80
  48	  84
  48	  85
  48	  86
  48	  88
  48	  90
  48	  91
  48	  93
  48	  96
  48	  99
  48	 102
  48	 107
  48	 112
  48	 116
  48	 119
  49	  52
  49	  53
  49	  55
  49	  59
  49	  63
  49	  66
  49	  67
  49	  71
  49	  82
  49	  83
  49	  85
  49	  87
  49	  94
  49	  95
  49	  96
  49	  99
  49	 103
  49	 108
  49	 110
  49	 111
  49	 116
  49	 117
  49	 119
  50	  51
  50	  52
  50	  53
  50	  55
  50	  56
  50	  57
  50	  60
  50	  64
  50	  74
  50	  79
  50	  81
  50	  85
  50	  86
  50	  89
  50	  90
  50	  91
  50	  93
  50	  94
  50	  97
  50	  98
  50	 101
  50	 102
  50	 111
  51	  54
  51	  57
  51	  59
  51	  64
  51	  68
  51	  71
  51	  76
  51	  77
  51	  79
  51	  81
  51	  84
  51	  85
  51	  86
  51	  87
  51	  89
  51	  91
  51	  92
  51	  98
  51	 100
  51	 104
  51	 108
  51	 110
  51	 112
  51	 113
  51	 115
  51	 116
  52	  54
  52	  55
  52	  56
  52	  58
  52	  64
  52	  66
  52	  67
  52	  68
  52	  69
  52	  71
  52	  72
  52	  73
  52	  79
  52	  81
  52	  89
  52	  91
  52	  95
  52	  96
  52	  97
  52	  99
  52	 101
  52	 102
  52	 109
  52	 112
  52	 113
  52	 116
  52	 118
  52	 119
  53	  54
  53	  55
  53	  57
  53	  58
  53	  59
  53	  60
  53	  61
  53	  62
  53	  63
  53	  64
  53	  65
  53	  66
  53	  71
  53	  74
  53	  76
  53	  78
  53	  79
  53	  80
  53	  84
  53	  88
  53	  92
  53	  93
  53	  94
  53	  98
  53	 100
  53	 102
  53	 104
  53	 107
  53	 117
  53	 118
  54	  57
  54	  58
  54	  59
  54	  62
  54	  71
  54	  72
  54	  74
  54	  75
  54	  76
  54	  77
  54	  78
  54	  82
  54	  84
  54	  85
  54	  88
  54	  89
  54	  90
  54	  94
  54	  96
  54	  98
  54	 100
  54	 102
  54	 103
  54	 104
  54	 107
  54	 109
  54	 111
  54	 113
  54	 114
  55	  57
  55	  68
  55	  69
  55	  75
  55	  76
  55	  80
  55	  83
  55	  85
  55	  90
  55	  93
  55	  96
  55	  99
  55	 100
  55	 102
  55	 110
  55	 115
  55	 116
  55	 118
  56	  59
  56	  62
  56	  64
  56	  73
  56	  74
  56	  75
  56	  78
  56	  79
  56	  80
  56	  82
  56	  84
  56	  85
  56	  87
  56	  88
  56	  89
  56	  91
  56	  93
  56	  94
  56	  97
  56	  98
  56	  99
  56	 100
  56	 102
  56	 104
  56	 116
  57	  65
  57	  67
  57	  69
  57	  70
  57	  72
  57	  75
  57	  76
  57	  79
  57	  80
  57	  84
  57	  85
  57	  87
  57	  88
  57	  91
  57	  92
  57	  93
  57	  94
  57	  95
  57	  96
  57	  97
  57	 104
  57	 106
  57	 107
  57	 108
  57	 110
  57	 111
  57	 114
  57	 118
  57	 119
  58	  64
  58	  65
  58	  68
  58	  72
  58	  75
  58	  77
  58	  78
  58	  79
  58	  80
  58	  81
  58	  83
  58	  84
  58	  86
  58	  87
  58	  88
  58	  89
  58	  90
  58	  91
  58	  96
  58	  99
  58	 100
  58	 101
  58	 103
  58	 112
  58	 119
  59	  60
  59	  61
  59	  62
  59	  67
  59	  68
  59	  70
  59	  71
  59	  72
  59	  73
  59	  77
  59	  78
  59	  82
  59	  83
  59	  91
  59	  94
  59	  95
  59	  97
  59	  99
  59	 100
  59	 101
  59	 102
  60	  62
  60	  63
  60	  64
  60	  65
  60	  69
  60	  71
  60	  74
  60	  76
  60	  80
  60	  82
  60	  83
  60	  84
  60	  85
  60	  86
  60	  87
  60	  88
  60	  90
  60	  91
  60	  92
  60	  94
  60	  95
  60	  99
  60	 101
  60	 105
  60	 106
  60	 107
  60	 114
  60	 115
  60	 116
  60	 117
  61	  64
  61	  65
  61	  68
  61	  71
  61	  72
  61	  74
  61	  75
  61	  76
  61	  77
  61	  80
  61	  85
  61	  87
  61	  92
  61	 102
  61	 106
  61	 109
  61	 113
  61	 118
  61	 119
  62	  71
  62	  72
  62	  75
  62	  76
  62	  77
  62	  79
  62	  80
  62	  83
  62	  85
  62	  86
  62	  90
  62	  93
  62	  95
  62	  96
  62	  97
  62	  99
  62	 104
  62	 105
  62	 106
  62	 107
  62	 108
  62	 111
  62	 113
  62	 116
  62	 118
  63	  64
  63	  68
  63	  75
  63	  79
  63	  80
  63	  81
  63	  83
  63	  87
  63	  90
  63	  92
  63	  93
  63	  95
  63	 100
  63	 104
  63	 106
  63	 108
  63	 109
  64	  66
  64	  67
  64	  70
  64	  71
  64	  73
  64	  74
  64	  75
  64	  77
  64	  79
  64	  81
  64	  82
  64	  89
  64	  91
  64	  97
  64	  98
  64	  99
  64	 103
  64	 104
  64	 105
  64	 106
  64	 107
  64	 108
  64	 109
  64	 111
  64	 112
  64	 113
  64	 114
  65	  66
  65	  68
  65	  69
  65	  72
  65	  77
  65	  81
  65	  84
  65	  85
  65	  87
  65	  93
  65	  94
  65	  95
  65	  98
  65	  99
  65	 100
  65	 106
  65	 107
  65	 108
  65	 110
  65	 111
  65	 112
  65	 115
  65	 118
  66	  68
  66	  69
  66	  70
  66	  72
  66	  73
  66	  75
  66	  78
  66	  80
  66	  87
  66	  96
  66	  99
  66	 101
  66	 106
  66	 107
  66	 108
  66	 110
  66	 112
  66	 113
  66	 114
  66	 115
  66	 116
  66	 119
  67	  76
  67	  77
  67	  80
  67	  81
  67	  84
  67	  85
  67	  86
  67	  87
  67	  89
  67	  92
  67	  93
  67	  94
  67	  96
  67	  97
  67	 100
  67	 103
  67	 104
  67	 105
  67	 107
  67	 110
  67	 117
  67	 119
  68	  69
  68	  71
  68	  77
  68	  83
  68	  87
  68	  89
  68	  94
  68	  95
  68	  97
  68	 102
  68	 103
  68	 106
  68	 109
  68	 111
  68	 112
  68	 116
  68	 117
  68	 119
  69	  71
  69	  73
  69	  75
  69	  76
  69	  77
  69	  80
  69	  81
  69	  82
  69	  83
  69	  85
  69	  86
  69	  88
  69	  90
  69	  91
  69	  94
  69	  95
  69	 101
  69	 102
  69	 107
  69	 108
  69	 109
  69	 112
  69	 114
  69	 117
  69	 118
  70	  73
  70	  74
  70	  76
  70	  78
  70	  82
  70	  84
  70	  85
  70	  87
  70	  89
  70	  91
  70	  94
  70	  95
  70	  96
  70	 103
  70	 104
  70	 105
  70	 107
  70	 112
  70	 114
  70	 116
  70	 119
  71	  73
  71	  75
  71	  76
  71	  82
  71	  85
  71	  88
  71	  89
  71	  90
  71	  91
  71	  93
  71	  97
  71	  98
  71	  99
  71	 101
  71	 103
  71	 105
  71	 108
  71	 109
  71	 110
  71	 115
  71	 116
  71	 117
  71	 118
  72	  73
  72	  74
  72	  79
  72	  88
  72	  90
  72	  92
  72	  93
  72	  95
  72	  97
  72	 100
  72	 101
  72	 102
  72	 105
  72	 108
  72	 109
  72	 113
  72	 115
  72	 116
  72	 117
  72	 118
  73	  76
  73	  80
  73	  83
  73	  85
  73	  86
  73	  87
  73	  95
  73	 100
  73	 103
  73	 104
  73	 105
  73	 106
  73	 107
  73	 108
  73	 110
  73	 111
  73	 114
  73	 118
  73	 119
  74	  76
  74	  82
  74	  86
  74	  87
  74	  89
  74	  92
  74	  93
  74	  95
  74	 102
  74	 104
  74	 108
  74	 110
  74	 113
  74	 118
  75	  78
  75	  79
  75	  80
  75	  85
  75	  86
  75	  91
  75	  92
  75	  97
  75	  98
  75	 102
  75	 103
  75	 106
  75	 109
  75	 111
  75	 112
  75	 113
  75	 114
  75	 115
  76	  77
  76	  78
  76	  79
  76	  80
  76	  82
  76	  87
  76	  90
  76	  93
  76	  94
  76	  96
  76	  97
  76	  99
  76	 100
  76	 101
  76	 103
  76	 105
  76	 109
  76	 111
  76	 112
  76	 119
  77	  81
  77	  83
  77	  84
  77	  88
  77	  93
  77	  98
  77	  99
  77	 104
  77	 107
  77	 110
  77	 113
  77	 115
  77	 116
  77	 119
  78	  80
  78	  81
  78	  82
  78	  83
  78	  85
  78	  88
  78	  89
  78	  90
  78	  91
  78	  92
  78	  93
  78	  95
  78	  96
  78	  98
  78	 100
  78	 101
  78	 103
  78	 105
  78	 106
  78	 107
  78	 110
  78	 113
  78	 114
  78	 116
  78	 117
  78	 118
  79	  80
  79	  81
  79	  85
  79	  86
  79	  87
  79	  88
  79	  90
  79	  92
  79	  95
  79	  96
  79	  99
  79	 102
  79	 104
  79	 108
  79	 110
  79	 112
  79	 113
  79	 117
  79	 118
  80	  81
  80	  82
  80	  83
  80	  90
  80	  93
  80	  99
  80	 101
  80	 102
  80	 103
  80	 104
  80	 105
  80	 107
  80	 110
  80	 113
  80	 117
  80	 118
  81	  83
  81	  84
  81	  85
  81	  87
  81	  91
  81	 102
  81	 105
  81	 108
  81	 110
  81	 111
  81	 112
  81	 115
  81	 119
  82	  83
  82	  85
  82	  88
  82	  89
  82	  93
  82	  94
  82	  95
  82	  98
  82	 102
  82	 104
  82	 105
  82	 106
  82	 112
  82	 114
  82	 115
  82	 116
  82	 117
  83	  84
  83	  87
  83	  91
  83	  93
  83	  95
  83	  96
  83	  99
  83	 101
  83	 102
  83	 107
  83	 108
  83	 110
  83	 113
  83	 114
  83	 115
  83	 116
  83	 117
  84	  91
  84	  92
  84	  93
  84	  94
  84	  96
  84	  97
  84	  98
  84	  99
  84	 103
  84	 104
  84	 106
  84	 107
  84	 109
  84	 110
  84	 111
  84	 119
  85	  86
  85	  88
  85	  92
  85	  96
  85	  99
  85	 102
  85	 105
  85	 115
  85	 116
  85	 119
  86	  90
  86	  93
  86	  98
  86	 100
  86	 106
  86	 107
  86	 108
  86	 109
  86	 112
  86	 116
  86	 119
  87	  92
  87	  98
  87	  99
  87	 100
  87	 104
  87	 108
  87	 110
  87	 111
  87	 112
  87	 113
  87	 115
  87	 118
  87	 119
  88	  89
  88	  93
  88	  94
  88	  95
  88	  97
  88	  98
  88	  99
  88	 102
  88	 105
  88	 106
  88	 107
  88	 109
  88	 111
  88	 114
  88	 116
  89	  91
  89	  92
  89	  94
  89	 103
  89	 111
  89	 113
  89	 115
  89	 118
  89	 119
  90	  91
  90	  93
  90	  94
  90	  95
  90	  98
  90	 100
  90	 102
  90	 107
  90	 108
  90	 112
  90	 113
  90	 114
  90	 116
  90	 118
  91	  92
  91	  99
  91	 100
  91	 101
  91	 102
  91	 104
  91	 106
  91	 108
  91	 109
  91	 110
  91	 111
  91	 112
  91	 116
  91	 119
  92	  93
  92	  95
  92	  96
  92	  98
  92	 100
  92	 103
  92	 104
  92	 105
  92	 106
  92	 108
  92	 109
  92	 114
  92	 118
  92	 119
  93	  95
  93	  98
  93	 100
  93	 101
  93	 102
  93	 103
  93	 104
  93	 106
  93	 109
  93	 110
  93	 117
  93	 118
  94	  98
  94	  99
  94	 101
  94	 102
  94	 103
  94	 104
  94	 106
  94	 109
  94	 110
  94	 111
  94	 115
  94	 116
  94	 117
  94	 118
  95	  98
  95	  99
  95	 101
  95	 103
  95	 104
  95	 108
  95	 111
  95	 115
  95	 118
  95	 119
  96	  98
  96	 100
  96	 105
  96	 111
  96	 118
  97	 107
  97	 109
  97	 110
  97	 111
  97	 116
  97	 117
  97	 118
  98	 100
  98	 101
  98	 103
  98	 108
  98	 109
  98	 111
  98	 112
  98	 115
  98	 117
  98	 118
  98	 119
  99	 101
  99	 104
  99	 105
  99	 113
  99	 117
  99	 118
 100	 101
 100	 102
 100	 103
 100	 104
 100	 107
 100	 108
 100	 109
 100	 111
 100	 112
 100	 114
 100	 117
 101	 103
 101	 105
 101	 110
 101	 118
 101	 119
 102	 103
 102	 106
 102	 107
 102	 110
 102	 115
 102	 118
 102	 119
 103	 104
 103	 106
 103	 107
 103	 117
 103	 118
 104	 105
 104	 108
 104	 112
 104	 115
 104	 118
 105	 106
 105	 112
 105	 113
 105	 116
 105	 118
 105	 119
 106	 118
 107	 108
 107	 109
 107	 110
 107	 114
 107	 115
 107	 118
 108	 116
 108	 117
 108	 118
 109	 110
 109	 113
 109	 114
 109	 116
 109	 118
 109	 119
 110	 111
 110	 113
 110	 117
 110	 119
 111	 114
 111	 115
 112	 116
 112	 119
 113	 114
 113	 117
 114	 117
 115	 116
 115	 117
 117	 119
;
